10	5
0	4	4	3	1	2
1	3	7	5	6
2	1	8
3	1	7
4	2	7	6
5	2	10	9
6	1	11
7	1	11
8	1	11
9	1	11
10	1	11
11	0
0	0	0	0	0	0	0
1	7	5	4	3	3	1
2	2	4	2	0	1	0
3	7	0	3	3	0	2
4	1	0	2	3	0	0
5	6	0	2	0	0	0
6	5	5	0	0	0	0
7	10	3	0	2	2	1
8	3	0	4	0	2	0
9	3	0	0	1	0	0
10	2	3	0	5	0	1
11	0	0	0	0	0	0
6	8	6	5	4
